Version identifier: 22.1.1.0 | 2022-11-28 | 9160aff4d
CPXPARAM_ClockType                               1
CPXPARAM_Read_DataCheck                          1
CPXPARAM_Threads                                 1
CPXPARAM_TimeLimit                               7200
CPXPARAM_MIP_Tolerances_AbsMIPGap                0
CPXPARAM_MIP_Tolerances_MIPGap                   0
CPXPARAM_MIP_Tolerances_Integrality              0
Tried aggregator 5 times.
MIP Presolve eliminated 15989 rows and 6941 columns.
MIP Presolve modified 852 coefficients.
Aggregator did 2658 substitutions.
Reduced MIP has 163169 rows, 85576 columns, and 537481 nonzeros.
Reduced MIP has 85576 binaries, 0 generals, 0 SOSs, and 0 indicators.
Presolve time = 1.11 sec. (656.87 ticks)
Probing fixed 473 vars, tightened 0 bounds.
Probing time = 3.13 sec. (793.21 ticks)
Tried aggregator 3 times.
Detecting symmetries...
MIP Presolve eliminated 3525 rows and 1143 columns.
MIP Presolve modified 445 coefficients.
Aggregator did 388 substitutions.
Reduced MIP has 159256 rows, 84045 columns, and 527229 nonzeros.
Reduced MIP has 84045 binaries, 0 generals, 0 SOSs, and 0 indicators.
Presolve time = 2.22 sec. (1156.30 ticks)
Probing time = 0.07 sec. (20.70 ticks)
Clique table members: 330678.
MIP emphasis: balance optimality and feasibility.
MIP search method: dynamic search.
Parallel mode: none, using 1 thread.
Root relaxation solution time = 945.25 sec. (268090.65 ticks)

        Nodes                                         Cuts/
   Node  Left     Objective  IInf  Best Integer    Best Bound    ItCnt     Gap

      0     0    33830.0000 26088                  33830.0000   127518         
      0     0    33736.5982 28901                  Cuts: 7153   218067         
      0     0    33148.4801 33190                  Cuts: 9312   519859         
      0     0    32102.5117 33892                  Cuts: 8421   803036         

GUB cover cuts applied:  1
Clique cuts applied:  615
Implied bound cuts applied:  5929
Zero-half cuts applied:  10366
Gomory fractional cuts applied:  10

Root node processing (before b&c):
  Real time             = 7200.16 sec. (2033047.95 ticks)
Sequential b&c:
  Real time             =    0.00 sec. (0.00 ticks)
                          ------------
Total (root+branch&cut) = 7200.16 sec. (2033047.95 ticks)
Solution is infeasible.

---------------------
@@@ MIP_time_limit_infeasible
Traceback (most recent call last):
  File "/scratch/scherif/DiverseSAT-journal_sup/DiverseSAT_Supplementary_Experiments/experiment-1/cplex/jobs/../solvers/CPLEX-DW-SE.py", line 104, in <module>
    print(f">>> Benchmark {os.path.basename(cnf_file)} k {k} OPT {int(prob.solution.get_objective_value())}"
  File "/users/scherif/.local/lib/python3.9/site-packages/cplex/_internal/_subinterfaces.py", line 7211, in get_objective_value
    return CPX_PROC.getobjval(self._env._e, self._cplex._lp)
  File "/users/scherif/.local/lib/python3.9/site-packages/cplex/_internal/_procedural.py", line 2055, in getobjval
    check_status(env, status)
  File "/users/scherif/.local/lib/python3.9/site-packages/cplex/_internal/_procedural.py", line 249, in __call__
    raise CplexSolverError(error_string, env, status)
cplex.exceptions.errors.CplexSolverError: CPLEX Error  1217: No solution exists.
